Linux optc-01-16 4.15.0-58-generic #64-Ubuntu SMP Tue Aug 6 11:12:41 UTC 2019 x86_64 x86_64 x86_64 GNU/Linux

top - 02:45:44 up 1 day, 16:46,  0 users,  load average: 0,37, 0,82, 0,94
Tasks: 289 gesamt,   1 laufend, 149 schlafend,   0 gestoppt,   0 Zombie
%CPU(s):  6,1 be,  0,2 sy,  0,0 ni, 93,7 un,  0,0 wa,  0,0 hi,  0,0 si,  0,0 st
KiB Spch : 97514992 gesamt, 95429376 frei,   649772 belegt,  1435848 Puff/Cache
KiB Swap:  8388604 gesamt,  8388604 frei,        0 belegt. 96123120 verfü Spch 

  PID USER      PR  NI    VIRT    RES    SHR S  %CPU %MEM     ZEIT+ BEFEHL
    1 root      20   0  233820   9456   6740 S   0,0  0,0   0:13.15 systemd
    2 root      20   0       0      0      0 S   0,0  0,0   0:00.16 kthreadd
    3 root      20   0       0      0      0 I   0,0  0,0   0:02.40 kworker/0:0
    4 root       0 -20       0      0      0 I   0,0  0,0   0:00.00 kworker/0:+
    6 root      20   0       0      0      0 I   0,0  0,0   0:00.00 kworker/u3+
    7 root       0 -20       0      0      0 I   0,0  0,0   0:00.00 mm_percpu_+
    8 root      20   0       0      0      0 S   0,0  0,0   0:00.02 ksoftirqd/0
    9 root      20   0       0      0      0 I   0,0  0,0   0:10.85 rcu_sched

hard time limit: 04:10:00
hard mem limit: 55100

SLURM jobID: 2182846

@01 /nfs/optimi/kombadon/IP/coral/neos-935348.mps.gz ===========
-----------------------------
Fr 23. Aug 02:45:44 CEST 2019
-----------------------------
@03 1566521144
@05 7200
SCIP version 6.0.0 [precision: 8 byte] [memory: block] [mode: optimized] [LP solver: CPLEX 12.8.0.0] [GitHash: 41ab6e0014]
Copyright (C) 2002-2018 Konrad-Zuse-Zentrum fuer Informationstechnik Berlin (ZIB)

External codes: 
  Readline 7.0         GNU library for command line editing (gnu.org/s/readline)
  CPLEX 12.8.0.0       Linear Programming Solver developed by IBM (www.cplex.com)
  CppAD 20180000.0     Algorithmic Differentiation of C++ algorithms developed by B. Bell (www.coin-or.org/CppAD)
  ZLIB 1.2.11          General purpose compression library by J. Gailly and M. Adler (zlib.net)
  GMP 6.1.2            GNU Multiple Precision Arithmetic Library developed by T. Granlund (gmplib.org)
  bliss 0.73p          Computing Graph Automorphism Groups by T. Junttila and P. Kaski (http://www.tcs.hut.fi/Software/bliss/)

user parameter file <scip.set> not found - using default parameters

SCIP> 
SCIP> set load /home/optimi/bzfhende/opti/scip-opti/check/../settings/enable_treeeprofile.set
loaded parameter file </home/optimi/bzfhende/opti/scip-opti/check/../settings/enable_treeprofile.set>
SCIP> set misc referencevalue 2512
misc/referencevalue = 2512
SCIP> set limits time 7200
limits/time = 7200
SCIP> set limits nodes 2100000000
limits/nodes = 2100000000
SCIP> set limits memory 50000
limits/memory = 50000
SCIP> set lp advanced threads 1
lp/threads = 1
SCIP> set timing clocktype 1
timing/clocktype = 1
SCIP> set display freq 10000
display/freq = 10000
SCIP> set memory savefac 1.0
memory/savefac = 1
SCIP> set save /home/optimi/bzfhende/opti/scip-opti/check/treesize.estimation.jouurnal.3/bzfhende.MMMc.382_neos-935348.scip.M640.enable_treeprofile.set
saved parameter file </home/optimi/bzfhende/opti/scip-opti/check/treesize.estimation.journal.3/bzfhende.MMMc.382_neos-935348.scip.M640.enable_treeprofile.set>
SCIP> read /nfs/optimi/kombadon/IP/coral/neos-935348.mps.gz

read problem </nfs/optimi/kombadon/IP/coral/neos-935348.mps.gz>
============

Warning line 7863: row "R7861" for objective function "N" ignored
original problem has 10301 variables (7522 bin, 0 int, 0 impl, 2779 cont) and 7859 constraints
SCIP> display parameters

number of parameters = 2448
non-default parameter settings:
display/freq = 10000
limits/time = 7200
limits/nodes = 2100000000
limits/memory = 50000
lp/threads = 1
memory/savefac = 1
misc/referencevalue = 2512
presolving/maxrestarts = 0
estimates/profile/enabled = TRUE
estimates/profile/maxdepthfactor = 10
estimates/profile/freq = 0

SCIP> optimize

Activating tree profile data collection
presolving:
(round 1, fast)       2161 del vars, 0 del conss, 0 add conss, 139 chg bounds, 0 chg sides, 0 chg coeffs, 0 upgd conss, 0 impls, 7033 clqs
(round 2, fast)       2161 del vars, 0 del conss, 0 add conss, 139 chg bounds, 139 chg sides, 0 chg coeffs, 0 upgd conss, 0 impls, 7033 clqs
(round 3, fast)       2161 del vars, 0 del conss, 0 add conss, 757 chg bounds, 139 chg sides, 0 chg coeffs, 0 upgd conss, 0 impls, 7033 clqs
(round 4, exhaustive) 2161 del vars, 17 del conss, 0 add conss, 757 chg bounds, 139 chg sides, 0 chg coeffs, 0 upgd conss, 0 impls, 7033 clqs
(round 5, exhaustive) 2161 del vars, 17 del conss, 0 add conss, 757 chg bounds, 139 chg sides, 0 chg coeffs, 7232 upgd conss, 0 impls, 7033 clqs
(round 6, medium)     2161 del vars, 20 del conss, 2 add conss, 757 chg bounds, 141 chg sides, 8 chg coeffs, 7232 upgd conss, 0 impls, 7033 clqs
   (0.8s) probing: 1000/7530 (13.3%) - 0 fixings, 0 aggregations, 17617 implications, 0 bound changes
   (0.8s) probing: 1001/7530 (13.3%) - 0 fixings, 0 aggregations, 17634 implications, 0 bound changes
   (0.8s) probing aborted: 1000/1000 successive useless probings
presolving (7 rounds: 7 fast, 4 medium, 3 exhaustive):
 2161 deleted vars, 20 deleted constraints, 2 added constraints, 757 tightened bounds, 0 added holes, 141 changed sides, 8 changed coefficients
 0 implications, 24667 cliques
presolved problem has 8140 variables (7522 bin, 0 int, 618 impl, 0 cont) and 7841 constraints
    190 constraints of type <knapsack>
   7033 constraints of type <setppc>
    610 constraints of type <linear>
      8 constraints of type <logicor>
transformed objective value is always integral (scale: 1)
Presolving Time: 0.82

 time | node  | left  |LP iter|LP it/n| mem |mdpt |frac |vars |cons |cols |rows |cuts |confs|strbr|  dualbound   | primalbound  |  gap   
t 0.9s|     1 |     0 |     0 |     - |  59M|   0 |   - |8140 |7841 |   0 |   0 |   0 |   0 |   0 |-4.679580e+06 | 4.740000e+05 |    Inf 
Q 0.9s|     1 |     0 |     0 |     - |  68M|   0 |   - |8140 |7841 |8140 |7841 |   0 |   0 |   0 |-4.679580e+06 | 6.880700e+04 |    Inf 
V 1.0s|     1 |     0 |    70 |     - |  72M|   0 |  12 |8140 |7841 |8140 |7841 |   0 |   0 |   0 |-4.679580e+06 | 5.225200e+04 |    Inf 
V16.1s|     1 |     0 |  3747 |     - |  74M|   0 | 507 |8140 |7862 |8140 |7841 |   0 |  21 |   0 |-4.679580e+06 | 2.400700e+04 |    Inf 
 22.5s|     1 |     0 | 23440 |     - |  75M|   0 |1587 |8140 |7862 |8140 |7841 |   0 |  21 |   0 | 2.502500e+03 | 2.400700e+04 | 859.32%
 26.5s|     1 |     0 | 31439 |     - |  78M|   0 | 787 |8140 |7862 |8140 |7851 |  10 |  21 |   0 | 2.502500e+03 | 2.400700e+04 | 859.32%
 28.9s|     1 |     0 | 36532 |     - |  79M|   0 | 595 |8140 |7863 |8140 |7863 |  22 |  22 |   0 | 2.502500e+03 | 2.400700e+04 | 859.32%
 30.0s|     1 |     0 | 38481 |     - |  80M|   0 | 281 |8140 |7863 |8140 |7869 |  28 |  22 |   0 | 2.502500e+03 | 2.400700e+04 | 859.32%
 31.2s|     1 |     0 | 41013 |     - |  81M|   0 | 478 |8140 |7863 |8140 |7876 |  35 |  22 |   0 | 2.502500e+03 | 2.400700e+04 | 859.32%
 32.1s|     1 |     0 | 42654 |     - |  82M|   0 | 477 |8140 |7864 |8140 |7879 |  38 |  23 |   0 | 2.502500e+03 | 2.400700e+04 | 859.32%
R32.1s|     1 |     0 | 42654 |     - |  82M|   0 | 477 |8140 |7864 |8140 |7879 |  38 |  23 |   0 | 2.502500e+03 | 2.395300e+04 | 857.16%
s32.2s|     1 |     0 | 42654 |     - |  82M|   0 | 477 |8140 |7864 |8140 |7879 |  38 |  23 |   0 | 2.502500e+03 | 2.296300e+04 | 817.60%
 33.0s|     1 |     0 | 44177 |     - |  83M|   0 | 334 |8140 |7864 |8140 |7886 |  45 |  23 |   0 | 2.507000e+03 | 2.296300e+04 | 815.96%
b33.1s|     1 |     0 | 44371 |     - |  84M|   0 |   - |8140 |7864 |8140 |7886 |  45 |  23 |   0 | 2.507000e+03 | 5.492000e+03 | 119.07%
 33.7s|     1 |     0 | 45201 |     - |  85M|   0 | 390 |8140 |7865 |8140 |7887 |  46 |  24 |   0 | 2.507000e+03 | 5.492000e+03 | 119.07%
 time | node  | left  |LP iter|LP it/n| mem |mdpt |frac |vars |cons |cols |rows |cuts |confs|strbr|  dualbound   | primalbound  |  gap   
 34.4s|     1 |     0 | 46495 |     - |  85M|   0 | 430 |8140 |7865 |8140 |7891 |  50 |  24 |   0 | 2.507000e+03 | 5.492000e+03 | 119.07%
 35.1s|     1 |     0 | 47634 |     - |  86M|   0 | 478 |8140 |7865 |8140 |7893 |  52 |  24 |   0 | 2.507000e+03 | 5.492000e+03 | 119.07%
 35.6s|     1 |     0 | 48334 |     - |  87M|   0 | 528 |8140 |7866 |8140 |7894 |  53 |  25 |   0 | 2.507000e+03 | 5.492000e+03 | 119.07%
 36.2s|     1 |     0 | 49234 |     - |  88M|   0 | 510 |8140 |7866 |8140 |7897 |  56 |  25 |   0 | 2.507000e+03 | 5.492000e+03 | 119.07%
 37.0s|     1 |     0 | 50631 |     - |  89M|   0 | 522 |8140 |7866 |8140 |7902 |  61 |  25 |   0 | 2.507000e+03 | 5.492000e+03 | 119.07%
 38.6s|     1 |     0 | 51555 |     - |  90M|   0 | 520 |8140 |7866 |8140 |7894 |  62 |  25 |   0 | 2.507000e+03 | 5.492000e+03 | 119.07%
E57.5s|     1 |     0 | 91505 |     - |  91M|   0 | 520 |8140 |7867 |8140 |7894 |  62 |  26 |   0 | 2.507000e+03 | 2.535000e+03 |   1.12%
 58.1s|     1 |     0 | 91505 |     - |  91M|   0 | 520 |8140 |7867 |8140 |7894 |  62 |  26 |   0 | 2.507000e+03 | 2.535000e+03 |   1.12%
b58.2s|     1 |     0 | 91929 |     - |  91M|   0 |   - |8140 |7867 |8140 |7894 |  62 |  26 |   0 | 2.507000e+03 | 2.525000e+03 |   0.72%
 58.8s|     1 |     0 | 92595 |     - |  91M|   0 | 546 |8140 |7867 |8140 |7895 |  63 |  26 |   0 | 2.507000e+03 | 2.525000e+03 |   0.72%
SCIP nodes: 1 Estimation: -1
 70.2s|     1 |     2 | 92595 |     - |  92M|   0 | 546 |8140 |7868 |8140 |7895 |  63 |  27 |  26 | 2.507000e+03 | 2.525000e+03 |   0.72%
   (71.2s) symmetry computation started: requiring (bin +, int -, cont -), (fixed: bin -, int +, cont -)
   (71.2s) symmetry computation finished: 30 generators found (max: 1500, log10 of symmetry group size: 10.3)
   (71.2s) turning off presolver <domcol> for remaining computations in order to avoid conflicts
SCIP nodes: 2 Estimation: -1
SCIP nodes: 4 Estimation: -1
SCIP nodes: 8 Estimation: -1
SCIP nodes: 16 Estimation: -1
SCIP nodes: 32 Estimation: -1
SCIP nodes: 64 Estimation: -1
z 538s|   118 |   119 |241997 |1650.4 | 140M|  54 |   7 |8140 |7890 |8140 |7884 | 123 |  49 | 240 | 2.507000e+03 | 2.512000e+03 |   0.20%
SCIP nodes: 128 Estimation: -1
SCIP nodes: 256 Estimation: -1
SCIP nodes: 512 Estimation: -1
SCIP nodes: 1024 Estimation: -1
SCIP nodes: 2048 Estimation: 1.35769e+08
SCIP nodes: 4096 Estimation: 1.12666e+18
SCIP nodes: 8192 Estimation: 7.46573e+14
 5709s| 10000 |  9059 |  7837k| 779.0 | 311M| 140 |  43 |8140 |  11k|8140 |7890 |1484 |6331 |5476 | 2.507000e+03 | 2.512000e+03 |   0.20%

SCIP Status        : solving was interrupted [time limit reached]
Solving Time (sec) : 7200.01
Solving Nodes      : 13927
Primal Bound       : +2.51199999999983e+03 (606 solutions)
Dual Bound         : +2.50700000000017e+03
Gap                : 0.20 %

SCIP> display statistics

SCIP Status        : solving was interrupted [time limit reached]
Total Time         :    7200.04
  solving          :    7200.01
  presolving       :       0.82 (included in solving)
  reading          :       0.03
  copying          :       0.77 (27 #copies) (minimal 0.01, maximal 0.05, average 0.03)
Original Problem   :
  Problem name     : file
  Variables        : 10301 (7522 binary, 0 integer, 0 implicit integer, 2779 continuous)
  Constraints      : 7859 initial, 7859 maximal
  Objective        : minimize, 10301 non-zeros (abs.min = 1, abs.max = 1000)
Presolved Problem  :
  Problem name     : t_file
  Variables        : 8140 (7522 binary, 0 integer, 618 implicit integer, 0 continuous)
  Constraints      : 7841 initial, 11200 maximal
  Objective        : minimize, 8140 non-zeros (abs.min = 1, abs.max = 999)
Presolvers         :   ExecTime  SetupTime  Calls  FixedVars   AggrVars   ChgTypes  ChgBounds   AddHoles    DelCons    AddCons   ChgSides   ChgCoefs
  boundshift       :       0.00       0.00      0          0          0          0          0          0          0          0          0          0
  convertinttobin  :       0.00       0.00      0          0          0          0          0          0          0          0          0          0
  domcol           :       0.00       0.00      1          0          0          0          0          0          0          0          0          0
  dualagg          :       0.00       0.00      0          0          0          0          0          0          0          0          0          0
  dualcomp         :       0.00       0.00      0          0          0          0          0          0          0          0          0          0
  dualinfer        :       0.00       0.00      0          0          0          0          0          0          0          0          0          0
  gateextraction   :       0.00       0.00      1          0          0          0          0          0          0          0          0          0
  implics          :       0.00       0.00      4          0          0          0          0          0          0          0          0          0
  inttobinary      :       0.00       0.00      0          0          0          0          0          0          0          0          0          0
  qpkktref         :       0.00       0.00      0          0          0          0          0          0          0          0          0          0
  redvub           :       0.00       0.00      0          0          0          0          0          0          0          0          0          0
  sparsify         :       0.01       0.00      1          0          0          0          0          0          0          0          0          0
  stuffing         :       0.00       0.00      0          0          0          0          0          0          0          0          0          0
  symbreak         :       0.00       0.00      0          0          0          0          0          0          0          0          0          0
  symmetry         :       0.00       0.00      0          0          0          0          0          0          0          0          0          0
  trivial          :       0.01       0.00      7          0          0          0          0          0          0          0          0          0
  tworowbnd        :       0.00       0.00      0          0          0          0          0          0          0          0          0          0
  dualfix          :       0.00       0.00      7       2022          0          0          0          0          0          0          0          0
  genvbounds       :       0.00       0.00      0          0          0          0          0          0          0          0          0          0
  orbitalfixing    :       0.00       0.00      0          0          0          0          0          0          0          0          0          0
  probing          :       0.72       0.00      1          0          0          0          0          0          0          0          0          0
  pseudoobj        :       0.00       0.00      0          0          0          0          0          0          0          0          0          0
  vbounds          :       0.01       0.00      1          0          0          0          0          0          0          0          0          0
  knapsack         :       0.00       0.00      5          0          0          0          0          0          1          2          2          8
  setppc           :       0.03       0.00      5          0          0          0          0          0          2          0          0          0
  linear           :       0.03       0.00     10          0        139          0        757          0         17          0        139          0
  logicor          :       0.00       0.00      5          0          0          0          0          0          0          0          0          0
  bounddisjunction :       0.00       0.00      0          0          0          0          0          0          0          0          0          0
  benders          :       0.00       0.00      0          0          0          0          0          0          0          0          0          0
  components       :       0.00       0.00      1          0          0          0          0          0          0          0          0          0
  root node        :          -          -      -        272          -          -        736          -          -          -          -          -
Constraints        :     Number  MaxNumber  #Separate #Propagate    #EnfoLP    #EnfoRelax  #EnfoPS    #Check   #ResProp    Cutoffs    DomReds       Cuts    Applied      Conss   Children
  benderslp        :          0          0          0          0      13581          0          0       1425          0          0          0          0          0          0          0
  integral         :          0          0          0          0      13581          0          0       1425          0          0       3527          0          0       4466      26414
  knapsack         :        190        190         14     219980          0          0          0       1376      26648         53      29108          0          0          0          0
  setppc           :       7033+      7266         14     219902          0          0          0        610     656647         24     356494          0          0          0          0
  linear           :        610+       637         14     219360          0          0          0        607       1108         32       8917          0          0          0          0
  logicor          :          8+      2831         14      17796          0          0          0        607       1165        231        584          0          0          0          0
  bounddisjunction :          0+       430          0       5655          0          0          0          0         12         41         38          0          0          0          0
  benders          :          0          0          0          0          0          0          0        608          0          0          0          0          0          0          0
  countsols        :          0          0          0          0          0          0          0        608          0          0          0          0          0          0          0
  components       :          0          0          0          0          0          0          0          0          0          0          0          0          0          0          0
Constraint Timings :  TotalTime  SetupTime   Separate  Propagate     EnfoLP     EnfoPS     EnfoRelax   Check    ResProp    SB-Prop
  benderslp        :       0.01       0.00       0.00       0.00       0.01       0.00       0.00       0.00       0.00       0.00
  integral         :    1727.29       0.00       0.00       0.00    1727.17       0.00       0.00       0.12       0.00       0.00
  knapsack         :       0.43       0.00       0.00       0.30       0.00       0.00       0.00       0.02       0.03       0.08
  setppc           :       2.64       0.00       0.00       1.46       0.00       0.00       0.00       0.14       0.51       0.53
  linear           :       0.51       0.00       0.00       0.43       0.00       0.00       0.00       0.02       0.00       0.06
  logicor          :       0.22       0.00       0.00       0.15       0.00       0.00       0.00       0.01       0.01       0.05
  bounddisjunction :       0.06       0.00       0.00       0.04       0.00       0.00       0.00       0.00       0.00       0.02
  benders          :       0.00       0.00       0.00       0.00       0.00       0.00       0.00       0.00       0.00       0.00
  countsols        :       0.00       0.00       0.00       0.00       0.00       0.00       0.00       0.00       0.00       0.00
  components       :       0.10       0.00       0.00       0.10       0.00       0.00       0.00       0.00       0.00       0.00
Propagators        : #Propagate   #ResProp    Cutoffs    DomReds
  dualfix          :          3          0          0          0
  genvbounds       :          0          0          0          0
  nlobbt           :          0          0          0          0
  obbt             :          0          0          0          0
  orbitalfixing    :      15137          0          0       3005
  probing          :          0          0          0          0
  pseudoobj        :      64867          0          0          0
  redcost          :      38583          0          0    1082128
  rootredcost      :          2          0          0        645
  vbounds          :     230651          0          0          0
Propagator Timings :  TotalTime  SetupTime   Presolve  Propagate    ResProp    SB-Prop
  dualfix          :       0.00       0.00       0.00       0.00       0.00       0.00
  genvbounds       :       0.16       0.00       0.00       0.13       0.00       0.03
  nlobbt           :       0.00       0.00       0.00       0.00       0.00       0.00
  obbt             :       0.00       0.00       0.00       0.00       0.00       0.00
  orbitalfixing    :       5.07       0.00       0.00       5.04       0.00       0.03
  probing          :       0.72       0.00       0.72       0.00       0.00       0.00
  pseudoobj        :       0.49       0.00       0.00       0.49       0.00       0.00
  redcost          :      65.67       0.00       0.00      65.64       0.00       0.03
  rootredcost      :       0.10       0.00       0.00       0.09       0.00       0.01
  vbounds          :       0.75       0.00       0.01       0.67       0.00       0.07
Orbital fixing     :
  vars fixed to 0  :       3002
  vars fixed to 1  :          3
Conflict Analysis  :       Time      Calls    Success    DomReds  Conflicts   Literals    Reconvs ReconvLits   Dualrays   Nonzeros   LP Iters   (pool size: [10000,10000])
  propagation      :       0.01        349        349          -       1102      203.2         38        3.7          -          -          -
  infeasible LP    :       0.00          0          0          -          0        0.0          0        0.0          0        0.0          0
  bound exceed. LP :      28.14       1344       1167          -      64200      361.1        229        8.9         73     1079.6      10700
  strong branching :       0.00          0          0          -          0        0.0          0        0.0          -          -          0
  pseudo solution  :       0.00          0          0          -          0        0.0          0        0.0          -          -          -
  applied globally :       0.42          -          -          0      10480      178.8          -          -         73          -          -
  applied locally  :          -          -          -          0          0        0.0          -          -          0          -          -
Separators         :   ExecTime  SetupTime      Calls    Cutoffs    DomReds       Cuts    Applied      Conss
  cut pool         :       0.06                  2489          -          -       1102          -          -    (maximal pool size: 157)
  aggregation      :       0.33       0.00        327          0          0          0          0          0
  cgmip            :       0.00       0.00          0          0          0          0          0          0
  clique           :       1.67       0.00         14          0          0          0         12          0
  closecuts        :       0.00       0.00          0          0          0          0          0          0
  cmir             :       0.00       0.00          0          0          0          0          0          0
  convexproj       :       0.00       0.00          0          0          0          0          0          0
  disjunctive      :       0.00       0.00          0          0          0          0          0          0
  eccuts           :       0.00       0.00          0          0          0          0          0          0
  flowcover        :       0.00       0.00          0          0          0          0          0          0
  gauge            :       0.00       0.00          0          0          0          0          0          0
  gomory           :       7.39       0.00        309          0          0        118        403          0
  impliedbounds    :       0.14       0.00        327          0         91          0          3          0
  intobj           :       0.00       0.00          0          0          0          0          0          0
  mcf              :       0.00       0.00          1          0          0          0          0          0
  oddcycle         :       0.00       0.00          0          0          0          0          0          0
  rapidlearning    :       0.00       0.00          0          0          0          0          0          0
  strongcg         :       5.34       0.00        269          0          0        102          3          0
  zerohalf         :       1.63       0.00        313          0          0        877       1282          0
Pricers            :   ExecTime  SetupTime      Calls       Vars
  problem variables:       0.00          -          0          0
Branching Rules    :   ExecTime  SetupTime   BranchLP  BranchExt   BranchPS    Cutoffs    DomReds       Cuts      Conss   Children
  allfullstrong    :       0.00       0.00          0          0          0          0          0          0          0          0
  cloud            :       0.00       0.00          0          0          0          0          0          0          0          0
  distribution     :       0.00       0.00          0          0          0          0          0          0          0          0
  fullstrong       :       0.00       0.00          0          0          0          0          0          0          0          0
  inference        :       0.00       0.00          0          0          0          0          0          0          0          0
  leastinf         :       0.00       0.00          0          0          0          0          0          0          0          0
  lookahead        :       0.00       0.00          0          0          0          0          0          0          0          0
  mostinf          :       0.00       0.00          0          0          0          0          0          0          0          0
  multaggr         :       0.00       0.00          0          0          0          0          0          0          0          0
  nodereopt        :       0.00       0.00          0          0          0          0          0          0          0          0
  pscost           :       0.00       0.00          0          0          0          0          0          0          0          0
  random           :       0.00       0.00          0          0          0          0          0          0          0          0
  relpscost        :    1727.15       0.00      13581          0          0          0       3527          0       4809      26414
Primal Heuristics  :   ExecTime  SetupTime      Calls      Found       Best
  LP solutions     :       0.00          -          -          0          0
  relax solutions  :       0.00          -          -          0          0
  pseudo solutions :       0.00          -          -          0          0
  strong branching :       0.46          -          -          0          0
  actconsdiving    :       0.00       0.00          0          0          0
  alns             :       4.05       0.00          6          0          0
  bound            :       0.00       0.00          0          0          0
  clique           :       0.04       0.00          1          1          1
  coefdiving       :      18.81       0.00         78          0          0
  completesol      :       0.00       0.00          0          0          0
  conflictdiving   :       0.00       0.00          0          0          0
  crossover        :      14.94       0.00         10          3          0
  dins             :       0.00       0.00          0          0          0
  distributiondivin:      34.16       0.00         78          0          0
  dualval          :       0.00       0.00          0          0          0
  farkasdiving     :      11.87       0.00          1          0          0
  feaspump         :       5.45       0.00          1          1          0
  fixandinfer      :       0.00       0.00          0          0          0
  fracdiving       :       5.05       0.00         78          0          0
  gins             :       0.02       0.00          0          0          0
  guideddiving     :      11.33       0.00         77          0          0
  indicator        :       0.03       0.00          0          0          0
  intdiving        :       0.00       0.00          0          0          0
  intshifting      :       0.00       0.00          0          0          0
  linesearchdiving :      13.88       0.00         77          0          0
  localbranching   :       0.00       0.00          0          0          0
  locks            :       0.09       0.00          1          0          0
  lpface           :    1439.31       0.00          5          0          0
  mpec             :       0.00       0.00          0          0          0
  multistart       :       0.00       0.00          0          0          0
  mutation         :       0.00       0.00          0          0          0
  nlpdiving        :       0.00       0.00          0          0          0
  objpscostdiving  :      74.83       0.00          5          0          0
  octane           :       0.00       0.00          0          0          0
  ofins            :       0.03       0.00          0          0          0
  oneopt           :       0.24       0.00          4          2          2
  proximity        :       0.00       0.00          0          0          0
  pscostdiving     :      75.12       0.00         78          0          0
  randrounding     :       0.44       0.00       1089          0          0
  rens             :       1.60       0.00          1          1          1
  reoptsols        :       0.00       0.00          0          0          0
  repair           :       0.00       0.00          0          0          0
  rins             :       1.41       0.00          9          5          0
  rootsoldiving    :      46.20       0.00         13          0          0
  rounding         :       3.80       0.00       5237          1          1
  shiftandpropagate:       0.00       0.00          0          0          0
  shifting         :       1.91       0.00       2005         19          1
  simplerounding   :       1.23       0.00      14199          0          0
  subnlp           :       0.02       0.00          0          0          0
  trivial          :       0.02       0.00          2          2          1
  trivialnegation  :       0.00       0.00          0          0          0
  trysol           :       0.00       0.00          0          0          0
  twoopt           :       0.00       0.00          0          0          0
  undercover       :       0.00       0.00          0          0          0
  vbounds          :      15.25       0.00          1          2          2
  veclendiving     :      29.17       0.00         78          0          0
  zeroobj          :       0.00       0.00          0          0          0
  zirounding       :       3.78       0.00      13205        569          1
  other solutions  :          -          -          -          0          -
Diving Statistics  :      Calls      Nodes   LP Iters Backtracks  Conflicts   MinDepth   MaxDepth   AvgDepth  RoundSols  NLeafSols  MinSolDpt  MaxSolDpt  AvgSolDpt
  actconsdiving    :          0          -          -          -          -          -          -          -          -          -          -          -          -
  coefdiving       :         78      16220      48968          3       4193        103        987      298.7          0          -          -          -          -
  conflictdiving   :          0          -          -          -          -          -          -          -          -          -          -          -          -
  distributiondivin:         78       2312     101543         86       5558         26        243      114.5          0          -          -          -          -
  farkasdiving     :          1         12      27348          0          0         13         13       13.0          0          -          -          -          -
  fracdiving       :         78       9042       3331         23       4421         54        573      202.1          0          -          -          -          -
  guideddiving     :         77      12316      25145          8       4534         77        830      248.8          0          -          -          -          -
  linesearchdiving :         77       4869      29815         76       4753         67        470      148.8          0          -          -          -          -
  pscostdiving     :         78       6357     228343         83       5760         41        680      167.3          0          -          -          -          -
  veclendiving     :         78      24876      75531         14       3788         55       1720      403.5          0          -          -          -          -
Neighborhoods      :      Calls  SetupTime  SolveTime SolveNodes       Sols       Best       Exp3  EpsGreedy        UCB TgtFixRate  Opt  Inf Node Stal  Sol  Usr Othr Actv
  rens             :          1       0.04       0.38         50          0          0    0.00000   -1.00000    1.00000      0.700    0    1    0    0    0    0    0    1
  rins             :          1       0.03       3.21         78          0          0    0.00000   -1.00000    1.00000      0.900    0    0    0    1    0    0    0    1
  mutation         :          1       0.03       0.02          0          0          0    0.00000   -1.00000    1.00000      0.700    0    1    0    0    0    0    0    1
  localbranching   :          0       0.00       0.00          0          0          0    0.00000   -1.00000    1.00000      0.900    0    0    0    0    0    0    0    1
  crossover        :          1       0.06       0.04          1          0          0    0.00000   -1.00000    1.00000      0.700    0    1    0    0    0    0    0    1
  proximity        :          0       0.00       0.00          0          0          0    0.00000   -1.00000    1.00000      0.900    0    0    0    0    0    0    0    1
  zeroobjective    :          1       0.03       0.05          1          0          0    0.00000   -1.00000    1.00000      0.700    0    1    0    0    0    0    0    1
  dins             :          1       0.06       0.04          1          0          0    0.00000   -1.00000    1.00000      0.700    0    1    0    0    0    0    0    1
LP                 :       Time      Calls Iterations  Iter/call   Iter/sec  Time-0-It Calls-0-It    ItLimit
  primal LP        :     203.70        336          0       0.00       0.00     203.70        336
  dual LP          :    3337.25      25655    9600545     644.42    2876.78       9.94      10757
  lex dual LP      :       0.00          0          0       0.00          -
  barrier LP       :       0.00          0          0       0.00          -       0.00          0
  resolve instable :       0.00          0          0       0.00          -
  diving/probing LP:     304.14       1258     997515     792.94    3279.79
  strong branching :    1698.95       7856    4926565     627.11    2899.77          -          -       6159
    (at root node) :          -         26      26000    1000.00          -
  conflict analysis:      21.29       1070      10700      10.00     502.58
B&B Tree           :
  number of runs   :          1
  nodes            :      13927 (13207 internal, 720 leaves)
  feasible leaves  :          0
  infeas. leaves   :         20
  objective leaves :        700
  nodes (total)    :      13927 (13207 internal, 720 leaves)
  nodes left       :      12483
  max depth        :        141
  max depth (total):        141
  backtracks       :        700 (5.0%)
  early backtracks :        562 (80.3%)
  nodes exc. ref.  :          0 (0.0%)
  delayed cutoffs  :          5
  repropagations   :       1221 (2009 domain reductions, 5 cutoffs)
  avg switch length:       4.30
  switching time   :     206.20
Root Node          :
  First LP value   : +2.50250000000006e+03
  First LP Iters   :      19691 (3140.51 Iter/sec)
  First LP Time    :       6.27
  Final Dual Bound : +2.50700000000012e+03
  Final Root Iters :      48896
  Root LP Estimate : +2.50753966555349e+03
Solution           :
  Solutions found  :        606 (10 improvements)
  First Solution   : +4.74000000000000e+05   (in run 1, after 1 nodes, 0.85 seconds, depth 0, found by <trivial>)
  Gap First Sol.   :   infinite
  Gap Last Sol.    :       0.20 %
  Primal Bound     : +2.51199999999983e+03   (in run 1, after 118 nodes, 538.33 seconds, depth 54, found by <zirounding>)
  Dual Bound       : +2.50700000000017e+03
  Gap              :       0.20 %
  Avg. Gap         :       0.86 % (6193.86 primal-dual integral)
  Tree Data        : 26415 nodes (13932 visited, 13207 inner, 725 leaves, 12483 open), progress: 0.0010
Tree Estimation    :       estim       value       trend  resolution      smooth
  wbe              :     1461626           -           -           -           -
  tree profile     : 749548719150484           -           -           -           -
  gap              :       27864     0.99801     0.00000           1       27852
  progress         :       27864     0.00099     0.00000           1       27852
  leaf-frequency   :       84347     0.05201     0.00001           1       78009
  ssg              :       27864     1.00000    -0.00000           1       27852
  open-nodes       :       27864 12482.00000     4.38806           1       27852


SCIP> checksol

check best solution
solution is feasible in original problem
Violation          :    absolute    relative
  bounds           : 2.66454e-15 2.66454e-15
  integrality      : 1.77636e-15           -
  LP rows          : 3.10862e-15 3.10862e-15
  constraints      : 3.10862e-15 3.10862e-15

SCIP> write sol /local/tmp/bzfhende-tmpdir/bzfhende.MMMc.382_neos-935348.scip.M6440.enable_treeprofile.sol

written solution information to file </local/tmp/bzfhende-tmpdir/bzfhende.MMMc.382_neos-935348.scip.M640.enable_treeprofile.sol>

SCIP> quit

Disabling tree profile data collection
Read MPS: 1
MIP has 10301 vars and 7859 constraints
Read SOL: 1
Objective value computed by solver: 2511.99999999983

Integrality tolerance: 1/10000
Linear tolerance: 1/10000
Objective tolerance: 1/10000

Check SOL: Integrality 1 Constraints 1 Objective 1
Maximum violations: Integrality 2e-15 Constraints 2e-15 Objective 1.699e-10
@04 1566528349
-----------------------------
Fr 23. Aug 04:45:49 CEST 2019
-----------------------------

=ready=
